p cnf 44 148
-3 1 0
-3 -2 0
-1 2 3 0
4 -5 0
-4 -5 0
5 -6 -7 0
-5 6 -7 0
5 6 7 0
-5 -6 7 0
8 -3 0
8 -7 0
3 7 -8 0
-9 -6 -10 0
9 6 -10 0
-9 6 10 0
9 -6 10 0
11 1 -12 0
-11 -1 -12 0
11 -1 12 0
-11 1 12 0
13 -11 -14 0
-13 11 -14 0
13 11 14 0
-13 -11 14 0
15 -12 0
15 14 0
12 -14 -15 0
-16 -10 0
-16 15 0
10 -15 16 0
19 17 0
19 -18 0
-17 18 -19 0
20 12 0
20 19 0
-12 -19 -20 0
21 16 0
21 20 0
-16 -20 -21 0
-22 1 0
-22 2 0
-1 -2 22 0
-23 1 0
-23 -22 0
-1 22 23 0
14 12 -25 0
-14 -12 -25 0
14 -12 25 0
-14 12 25 0
-26 24 0
-26 -25 0
-24 25 26 0
-23 -26 -27 0
23 26 -27 0
-23 26 27 0
23 -26 27 0
-21 27 -28 0
21 -27 -28 0
-21 -27 28 0
21 27 28 0
29 8 0
29 28 0
-8 -28 -29 0
-30 -22 0
-30 18 0
22 -18 30 0
29 -30 -31 0
-29 30 -31 0
29 30 31 0
-29 -30 31 0
32 13 0
32 -14 0
-13 14 -32 0
-13 -11 -33 0
13 11 -33 0
-13 11 33 0
13 -11 33 0
-34 4 0
-34 -2 0
-4 2 34 0
-35 1 0
-35 -34 0
-1 34 35 0
36 -33 0
36 -35 0
33 35 -36 0
37 -32 0
37 -36 0
32 36 -37 0
-38 -4 0
-38 11 0
4 -11 38 0
-37 -38 -39 0
37 38 -39 0
-37 38 39 0
37 -38 39 0
-40 -31 0
-40 -39 0
31 39 40 0
-7 34 -41 0
7 -34 -41 0
-7 -34 41 0
7 34 41 0
-41 33 -42 0
41 -33 -42 0
-41 -33 42 0
41 33 42 0
-43 -42 0
-43 -14 0
42 14 43 0
44 40 0
44 -43 0
-40 43 -44 0
29 15 0
-2 31 0
-12 -18 32 0
5 8 41 37 33 -36 0
29 -41 0
-7 -19 40 27 0
44 26 -31 16 -13 2 0
-42 -35 44 31 -14 0
3 -41 27 0
44 38 16 -26 -25 0
6 40 -43 -10 0
-38 -11 23 0
39 -19 -40 -25 3 0
44 25 -23 0
23 -11 20 0
29 15 -11 -4 0
20 -7 -19 -6 28 0
24 -5 0
16 -1 41 26 0
26 6 -14 41 -34 0
8 33 0
-27 12 -38 0
-18 6 -11 0
33 -28 36 0
42 -35 4 0
-28 -3 0
25 6 2 41 0
33 9 15 -42 0
-43 -6 0
-24 20 30 -9 0
-21 -19 16 -38 -18 0
-13 -40 39 -44 0
-34 15 3 -25 31 44 0
33 17 -26 -30 19 -29 0
44 0
